p cnf 40 117
a 36 23 0
e 1 2 3 4 5 6 7 8 9 10 11 12 13 14 15 16 17 18 19 20 21 22 24 25 26 27 28 29 30 31 32 33 34 35 37 38 39 40 0
3 1 0
3 2 0
-1 -2 -3 0
-4 -5 -6 0
4 5 -6 0
-4 5 6 0
4 -5 6 0
-8 -6 0
-8 -7 0
6 7 8 0
6 -8 -9 0
-6 8 -9 0
6 8 9 0
-6 -8 9 0
-10 4 0
-10 7 0
-4 -7 10 0
11 7 0
11 -10 0
-7 10 -11 0
12 -9 0
12 -11 0
9 11 -12 0
-2 -12 -13 0
2 12 -13 0
-2 12 13 0
2 -12 13 0
14 -2 0
14 13 0
2 -13 -14 0
15 3 0
15 14 0
-3 -14 -15 0
-16 8 0
-16 10 0
-8 -10 16 0
11 -16 -17 0
-11 16 -17 0
11 16 17 0
-11 -16 17 0
10 5 -18 0
-10 -5 -18 0
10 -5 18 0
-10 5 18 0
17 -18 -19 0
-17 18 -19 0
17 18 19 0
-17 -18 19 0
21 20 0
21 8 0
-20 -8 -21 0
-10 22 0
10 22 0
-23 -20 0
-23 13 0
20 -13 23 0
-24 -22 0
-24 -23 0
22 23 24 0
-21 -24 -25 0
21 24 -25 0
-21 24 25 0
21 -24 25 0
26 -19 0
26 -25 0
19 25 -26 0
-27 -1 0
-27 -10 0
1 10 27 0
28 27 0
28 6 0
-27 -6 -28 0
28 -29 -30 0
-28 29 -30 0
28 29 30 0
-28 -29 30 0
-32 -5 0
-32 -29 0
5 29 32 0
33 -31 0
33 32 0
31 -32 -33 0
34 -30 0
34 33 0
30 -33 -34 0
35 5 0
35 -10 0
-5 10 -35 0
-34 35 -36 0
34 -35 -36 0
-34 -35 36 0
34 35 36 0
7 -9 -37 0
-7 9 -37 0
7 9 37 0
-7 -9 37 0
-38 -36 0
-38 37 0
36 -37 38 0
-39 -26 0
-39 38 0
26 -38 39 0
40 15 0
40 39 0
-15 -39 -40 0
-5 13 -27 0
-22 13 -4 -15 -9 -37 0
7 -35 -4 0
-21 -15 -39 -5 34 -17 10 -11 0
-39 15 -24 19 -32 5 14 0
26 39 6 36 0
27 -1 24 35 2 9 -28 0
-30 19 17 -20 -39 1 0
-4 -1 27 -31 -25 -9 0
-17 -31 36 -27 -11 7 0
14 -11 21 -30 27 35 -18 8 0
40 0
